p cnf 12 50 
1 -5 -11 0
-9 8 -3 0
9 4 5 0
-5 -1 7 0
-10 2 3 0
-7 -1 6 0
-3 -6 -2 0
-7 1 -5 0
7 -10 1 0
3 -6 9 0
1 10 -6 0
2 -5 11 0
-4 -9 -5 0
4 -5 3 0
-6 -1 -2 0
-3 -8 -1 0
-7 -3 -8 0
9 4 3 0
12 -4 11 0
-4 -7 11 0
10 7 -9 0
-5 -2 6 0
8 -5 -7 0
-5 7 -11 0
11 -10 -12 0
9 7 8 0
4 -2 -3 0
-1 10 8 0
11 -12 -8 0
-3 8 -9 0
9 -10 4 0
12 -4 9 0
-2 -3 11 0
7 -4 10 0
-2 -5 -8 0
11 -6 4 0
-8 5 -7 0
-11 -10 -8 0
5 10 -1 0
4 -6 9 0
11 -10 -12 0
-6 -9 -8 0
-1 -8 -5 0
-4 -2 3 0
-4 7 8 0
-1 2 3 0
10 1 -7 0
-8 1 -3 0
-10 7 5 0
-4 3 1 0
